bacp/param_dec/inst-774-1-2049716937.eprime-param
language ESSENCE' 1.0

letting n_courses be 112
letting n_periods be 26
letting prerequisite_RelationAsSet_Explicit_1 be
        [1, 1, 1, 1, 1, 2, 2, 2, 2, 2, 2, 2, 2, 3, 3, 3, 3, 3, 3, 3, 4, 4, 4, 4, 4, 4, 4, 4, 5, 5, 5, 5, 6, 6, 6, 6, 6,
         6, 6, 6, 7, 7, 7, 7, 7, 7, 7, 7, 7, 7, 8, 8, 8, 8, 8, 8, 8, 8, 9, 9, 9, 10, 10, 10, 10, 10, 10, 10, 11, 11, 11,
         11, 11, 11, 11, 12, 12, 12, 12, 12, 13, 13, 13, 13, 13, 13, 13, 13, 13, 13, 14, 14, 14, 14, 14, 14, 14, 14, 15,
         15, 17, 17, 18, 19, 19, 19, 19, 19, 20, 21, 21, 21, 22, 22, 24, 24, 24, 25, 25, 26, 26, 26, 27, 27, 28, 28, 29,
         29, 29, 30, 30, 31, 31, 32, 32, 33, 34, 36, 36, 36, 38, 39, 40, 40, 40, 42, 42, 42, 43, 44, 45, 45, 46, 46, 46,
         46, 47, 48, 48, 48, 48, 49, 49, 51, 52, 52, 52, 53, 54, 58, 58, 58, 60, 60, 61, 61, 62, 62, 62, 63, 63, 64, 64,
         65, 65, 68, 68, 69, 72, 72;
             int(1..190)]
letting prerequisite_RelationAsSet_Explicit_2 be
        [23, 28, 68, 69, 71, 15, 17, 26, 40, 43, 48, 51, 57, 43, 46, 47, 55, 59, 60, 63, 18, 27, 30, 31, 38, 46, 54, 67,
         22, 25, 49, 66, 17, 22, 39, 44, 51, 54, 56, 61, 16, 19, 20, 37, 42, 44, 45, 47, 51, 67, 21, 23, 28, 35, 36, 42,
         47, 50, 29, 34, 45, 30, 33, 36, 48, 57, 63, 72, 19, 30, 33, 34, 46, 58, 67, 20, 24, 31, 32, 64, 31, 34, 35, 41,
         42, 52, 64, 66, 70, 71, 45, 50, 53, 61, 62, 65, 68, 70, 88, 102, 79, 110, 87, 76, 84, 95, 101, 107, 106, 85,
         90, 107, 77, 99, 99, 104, 109, 81, 98, 88, 91, 104, 73, 104, 86, 101, 74, 76, 92, 81, 101, 77, 110, 108, 111,
         75, 90, 79, 80, 85, 98, 82, 94, 98, 107, 86, 100, 111, 106, 111, 83, 88, 74, 79, 93, 105, 78, 80, 96, 100, 102,
         84, 111, 96, 94, 103, 112, 91, 81, 75, 96, 108, 85, 94, 80, 84, 73, 91, 108, 90, 111, 91, 103, 92, 106, 79,
         110, 89, 97, 110;
             int(1..190)]
letting course_load_Function1D be
        [6, 5, 4, 4, 6, 6, 5, 5, 4, 6, 4, 6, 4, 5, 6, 5, 7, 6, 7, 6, 5, 7, 5, 7, 5, 4, 4, 7, 6, 4, 5, 5, 6, 4, 5, 7, 4,
         5, 5, 4, 7, 6, 6, 4, 6, 4, 4, 5, 5, 5, 4, 5, 6, 6, 7, 4, 7, 6, 4, 6, 4, 5, 7, 5, 5, 7, 5, 4, 4, 7, 4, 6, 4, 5,
         6, 6, 6, 5, 5, 4, 6, 6, 5, 6, 4, 4, 5, 5, 4, 6, 7, 6, 5, 4, 4, 5, 6, 6, 5, 4, 4, 6, 4, 4, 5, 4, 4, 6, 6, 4, 5,
         6;  int(1..112)]
letting load_per_period_ub be 23
letting load_per_period_lb be 10
letting courses_per_period_ub be 7
letting courses_per_period_lb be 2
letting fin1 be 190
letting fin2 be 112
letting fin3 be 7
